NAME : S-U-4-2.2790.tour
COMMENT : Length = 2790
COMMENT : Found by LKH [Keld Helsgaun] Thu May 17 23:18:22 2018
TYPE : TOUR
DIMENSION : 31
TOUR_SECTION
1
7
9
8
31
21
19
18
30
29
26
11
12
14
5
24
22
13
2
16
3
28
17
27
23
25
20
6
15
10
4
-1
EOF
